p cnf 127 423
-3 2 0
-3 -1 0
-2 1 3 0
-1 -3 -4 0
1 3 -4 0
-1 3 4 0
1 -3 4 0
6 5 0
6 -2 0
-5 2 -6 0
-7 -4 0
-7 -6 0
4 6 7 0
9 6 0
9 8 0
-6 -8 -9 0
10 -7 0
10 9 0
7 -9 -10 0
-11 -2 -12 0
11 2 -12 0
-11 2 12 0
11 -2 12 0
14 -1 0
14 -13 0
1 13 -14 0
16 14 0
16 -15 0
-14 15 -16 0
18 16 0
18 -17 0
-16 17 -18 0
12 18 -19 0
-12 -18 -19 0
12 -18 19 0
-12 18 19 0
21 -19 0
21 -20 0
19 20 -21 0
22 -10 0
22 -21 0
10 21 -22 0
-23 -14 -24 0
23 14 -24 0
-23 14 24 0
23 -14 24 0
25 -24 0
25 2 0
24 -2 -25 0
-26 -25 0
-26 -15 0
25 15 26 0
27 22 0
27 -26 0
-22 26 -27 0
-28 -11 0
-28 23 0
11 -23 28 0
28 29 0
-28 29 0
-30 -29 0
-30 23 0
29 -23 30 0
-32 2 -33 0
32 -2 -33 0
-32 -2 33 0
32 2 33 0
-33 32 -34 0
33 -32 -34 0
-33 -32 34 0
33 32 34 0
35 -31 0
35 34 0
31 -34 -35 0
-35 13 -36 0
35 -13 -36 0
-35 -13 36 0
35 13 36 0
-37 33 0
-37 5 0
-33 -5 37 0
-37 8 -38 0
37 -8 -38 0
-37 -8 38 0
37 8 38 0
36 -38 -39 0
-36 38 -39 0
36 38 39 0
-36 -38 39 0
-30 39 -40 0
30 -39 -40 0
-30 -39 40 0
30 39 40 0
-31 -5 -42 0
31 5 -42 0
-31 5 42 0
31 -5 42 0
44 -42 0
44 43 0
42 -43 -44 0
41 -44 -45 0
-41 44 -45 0
41 44 45 0
-41 -44 45 0
-46 2 0
-46 -45 0
-2 45 46 0
47 -13 0
47 28 0
13 -28 -47 0
-48 -9 0
-48 -42 0
9 42 48 0
-49 47 0
-49 48 0
-47 -48 49 0
50 -46 0
50 -49 0
46 49 -50 0
-52 -51 0
-52 33 0
51 -33 52 0
-53 -52 0
-53 6 0
52 -6 53 0
-50 53 -54 0
50 -53 -54 0
-50 -53 54 0
50 53 54 0
-55 40 0
-55 54 0
-40 -54 55 0
56 27 0
56 -55 0
-27 55 -56 0
42 -51 -57 0
-42 51 -57 0
42 51 57 0
-42 -51 57 0
-58 -25 0
-58 57 0
25 -57 58 0
59 -58 0
59 -1 0
58 1 -59 0
60 8 0
60 19 0
-8 -19 -60 0
-16 15 -61 0
16 -15 -61 0
-16 -15 61 0
16 15 61 0
62 60 0
62 61 0
-60 -61 -62 0
-59 -62 -63 0
59 62 -63 0
-59 62 63 0
59 -62 63 0
64 11 0
64 -42 0
-11 42 -64 0
65 -47 0
65 64 0
47 -64 -65 0
66 -63 0
66 65 0
63 -65 -66 0
67 2 0
67 15 0
-2 -15 -67 0
-68 -67 0
-68 -3 0
67 3 68 0
-69 -42 0
-69 34 0
42 -34 69 0
70 -16 0
70 -69 0
16 69 -70 0
-71 45 0
-71 -70 0
-45 70 71 0
2 24 -72 0
-2 -24 -72 0
2 -24 72 0
-2 24 72 0
-73 23 0
-73 -5 0
-23 5 73 0
74 -72 0
74 73 0
72 -73 -74 0
-71 74 -75 0
71 -74 -75 0
-71 -74 75 0
71 74 75 0
76 -68 0
76 75 0
68 -75 -76 0
-23 32 -77 0
23 -32 -77 0
-23 -32 77 0
23 32 77 0
76 77 -78 0
-76 -77 -78 0
76 -77 78 0
-76 77 78 0
66 78 -79 0
-66 -78 -79 0
66 -78 79 0
-66 78 79 0
-80 -41 0
-80 -1 0
41 1 80 0
-82 -80 0
-82 -81 0
80 81 82 0
-83 25 0
-83 -32 0
-25 32 83 0
84 72 0
84 -83 0
-72 83 -84 0
-82 -84 -85 0
82 84 -85 0
-82 84 85 0
82 -84 85 0
86 45 0
86 -14 0
-45 14 -86 0
-87 -35 0
-87 37 0
35 -37 87 0
-88 87 0
-88 -16 0
-87 16 88 0
-86 -88 -89 0
86 88 -89 0
-86 88 89 0
86 -88 89 0
17 23 -90 0
-17 -23 -90 0
17 -23 90 0
-17 23 90 0
-90 -9 -91 0
90 9 -91 0
-90 9 91 0
90 -9 91 0
-92 89 0
-92 -91 0
-89 91 92 0
-93 85 0
-93 92 0
-85 -92 93 0
94 -79 0
94 93 0
79 -93 -94 0
95 -56 0
95 94 0
56 -94 -95 0
58 -28 -96 0
-58 28 -96 0
58 28 96 0
-58 -28 96 0
-31 -5 -97 0
31 5 -97 0
-31 5 97 0
31 -5 97 0
-98 -18 0
-98 97 0
18 -97 98 0
99 15 0
99 15 0
-15 -99 0
-100 98 0
-100 99 0
-98 -99 100 0
-101 100 0
-101 44 0
-100 -44 101 0
-102 69 0
-102 -87 0
-69 87 102 0
103 -101 0
103 102 0
101 -102 -103 0
96 103 -104 0
-96 -103 -104 0
96 -103 104 0
-96 103 104 0
-105 -64 0
-105 -14 0
64 14 105 0
-106 -81 0
-106 14 0
81 -14 106 0
-1 -8 -107 0
1 8 -107 0
-1 8 107 0
1 -8 107 0
108 -106 0
108 -107 0
106 107 -108 0
109 -105 0
109 -108 0
105 108 -109 0
33 -9 -110 0
-33 9 -110 0
33 9 110 0
-33 -9 110 0
-110 11 -111 0
110 -11 -111 0
-110 -11 111 0
110 11 111 0
112 6 0
112 57 0
-6 -57 -112 0
-113 111 0
-113 112 0
-111 -112 113 0
114 90 0
114 41 0
-90 -41 -114 0
115 -113 0
115 114 0
113 -114 -115 0
9 -99 -116 0
-9 99 -116 0
9 99 116 0
-9 -99 116 0
29 64 -117 0
-29 -64 -117 0
29 -64 117 0
-29 64 117 0
118 72 0
118 -117 0
-72 117 -118 0
119 -118 0
119 83 0
118 -83 -119 0
116 119 -120 0
-116 -119 -120 0
116 -119 120 0
-116 119 120 0
121 -115 0
121 120 0
115 -120 -121 0
-122 -109 0
-122 121 0
109 -121 122 0
123 104 0
123 -122 0
-104 122 -123 0
2 -52 -124 0
-2 52 -124 0
2 52 124 0
-2 -52 124 0
-125 12 0
-125 124 0
-12 -124 125 0
-126 123 0
-126 125 0
-123 -125 126 0
127 -95 0
127 126 0
95 -126 -127 0
-71 -37 85 0
-68 73 0
-1 -18 83 95 -34 90 0
100 25 -102 32 13 45 0
-104 29 0
-27 88 0
5 16 -94 87 0
-66 12 0
69 -26 -36 5 0
122 4 -81 -119 98 51 0
33 -65 -101 14 0
-57 -53 64 0
-23 5 -108 12 -123 0
16 -14 126 -11 -5 0
43 124 62 0
93 -90 -66 -24 0
-98 47 86 0
54 -43 82 86 -103 -6 0
-82 44 114 0
-88 -82 0
-70 -22 -55 -14 0
41 -47 -18 0
91 42 -28 -97 65 83 0
92 123 0
111 -105 53 -15 57 0
99 -46 -40 -21 102 -97 0
110 -14 -122 3 0
-10 -74 -35 -79 -105 0
66 -113 1 0
-115 -26 4 11 60 0
-102 104 -125 -84 -60 0
110 -1 97 -107 -103 -79 0
-26 -69 0
-46 1 21 0
-41 9 -74 0
1 -78 85 0
28 47 -39 0
-96 109 35 77 0
106 -84 0
-59 -41 0
-103 -16 25 -69 30 0
-77 -75 0
-45 -78 -3 -57 59 0
-84 -45 0
-27 62 74 123 -43 70 0
-91 -68 97 27 -24 0
-51 80 0
100 -120 -89 -104 0
42 98 -69 36 0
-48 -21 -50 0
29 39 0
121 -10 53 0
56 -100 21 105 -93 -117 0
118 35 64 0
58 107 -39 17 0
127 0
